p wcnf 151 76 77 
1 31 -112 0 
1 139 -142 0 
1 -55 -126 0 
1 18 131 0 
1 120 -74 0 
1 136 -113 0 
1 112 -126 0 
1 -56 -72 0 
1 -83 42 0 
1 58 148 0 
1 -39 -74 0 
1 -143 -27 0 
1 -5 -63 0 
1 -55 -50 0 
1 -119 -7 0 
1 77 35 0 
1 100 79 0 
1 -3 -79 0 
1 133 -37 0 
1 140 3 0 
1 127 -117 0 
1 28 -106 0 
1 71 -69 0 
1 -82 -50 0 
1 -68 94 0 
1 28 -103 0 
1 121 -137 0 
1 -58 107 0 
1 -116 122 0 
1 150 -147 0 
1 82 100 0 
1 36 -6 0 
1 103 56 0 
1 -121 -39 0 
1 -129 -59 0 
1 145 -54 0 
1 -23 -123 0 
1 15 -112 0 
1 108 136 0 
1 14 124 0 
1 -19 -130 0 
1 149 -23 0 
1 23 -105 0 
1 -130 -70 0 
1 -139 -61 0 
1 -53 107 0 
1 129 -110 0 
1 34 -46 0 
1 21 49 0 
1 140 -129 0 
1 63 111 0 
1 -70 15 0 
1 -80 43 0 
1 77 -84 0 
1 -55 -119 0 
1 -30 81 0 
1 110 151 0 
1 -20 94 0 
1 18 -20 0 
1 -77 -119 0 
1 -104 138 0 
1 136 129 0 
1 -150 44 0 
1 11 23 0 
1 -65 76 0 
1 24 20 0 
1 -22 144 0 
1 -70 -69 0 
1 -150 -138 0 
1 -140 134 0 
1 -89 -91 0 
1 -14 -11 0 
1 -81 54 0 
1 -72 -97 0 
1 -51 -121 0 
1 -61 121 0 
